1100
1594
1171
1224
599
868
1455
627
1713
1304
1361
1782
853
1703
257
1430
1434
943
2079
2043
206
1070
476
1036
954
139
473
2039
1140
731
378
1392
557
1014
1086
1643
455
1944
307
958
351
593
1858
263
1482
814
620
642
1273
1041
